n_res = 4;
rc = [ 10, 14, 18, 24 ];
n_tasks = 30;
d = [ 10, 6, 8, 6, 5, 9, 1, 6, 6, 6, 1, 4, 1, 7, 8, 4, 3, 3, 2, 1, 3, 6, 10, 1, 4, 6, 6, 3, 4, 8 ];
rr = [| 0, 0, 0, 0, 0, 0, 0, 6, 0, 0, 0, 2, 0, 0, 0, 0, 0, 10, 0, 2, 0, 0, 0, 0, 0, 0, 0, 0, 0, 1
      | 5, 10, 0, 2, 0, 0, 0, 0, 2, 8, 0, 0, 0, 0, 0, 0, 7, 0, 0, 0, 0, 0, 0, 0, 0, 0, 2, 0, 0, 0
      | 0, 0, 0, 0, 0, 0, 7, 0, 0, 0, 3, 0, 4, 0, 0, 0, 0, 0, 1, 0, 6, 1, 0, 0, 10, 0, 0, 10, 0, 0
      | 0, 0, 1, 0, 7, 10, 0, 0, 0, 0, 0, 0, 0, 1, 10, 2, 0, 0, 0, 0, 0, 0, 3, 4, 0, 7, 0, 0, 9, 0 |];
suc = [ { 2 }, 
        { 1 }, 
        { 4 }, 
        { 3 }, 
        { 6 }, 
        { 5 }, 
        { 8 }, 
        { 7 }, 
        { 10 }, 
        { 9 }, 
        { 12 }, 
        { 11 }, 
        { 14 }, 
        { 13 }, 
        { 16 }, 
        { 15 }, 
        { 18 }, 
        { 17 }, 
        { 20 }, 
        { 19 }, 
        { 22 }, 
        { 21 }, 
        { 24 }, 
        { 23 }, 
        { 26 }, 
        { 25 }, 
        { 28 }, 
        { 27 }, 
        { 30 }, 
        { 29 }]; 
